c "966429.clq"
p edge 205 3024
e 1 17
e 1 18
e 1 19
e 1 20
e 1 21
e 1 22
e 1 24
e 1 27
e 1 30
e 1 32
e 1 41
e 1 42
e 1 45
e 1 46
e 1 50
e 1 56
e 1 59
e 1 75
e 1 81
e 1 84
e 1 86
e 1 95
e 1 116
e 1 137
e 1 138
e 1 153
e 1 163
e 1 179
e 1 180
e 1 181
e 2 17
e 2 18
e 2 19
e 2 20
e 2 21
e 2 22
e 2 23
e 2 24
e 2 25
e 2 26
e 2 27
e 2 29
e 2 30
e 2 33
e 2 35
e 2 38
e 2 56
e 2 59
e 2 60
e 2 64
e 2 67
e 2 71
e 2 73
e 2 74
e 2 75
e 2 85
e 2 86
e 2 93
e 2 103
e 2 105
e 2 106
e 2 121
e 2 132
e 2 136
e 2 137
e 2 138
e 2 142
e 2 146
e 2 147
e 2 148
e 2 156
e 2 179
e 2 190
e 2 192
e 2 197
e 2 204
e 3 17
e 3 18
e 3 20
e 3 21
e 3 22
e 3 23
e 3 24
e 3 27
e 3 32
e 3 33
e 3 34
e 3 39
e 3 44
e 3 46
e 3 47
e 3 54
e 3 56
e 3 57
e 3 74
e 3 81
e 3 85
e 3 97
e 3 103
e 3 107
e 3 111
e 3 115
e 3 117
e 3 121
e 3 132
e 3 136
e 3 149
e 3 161
e 3 166
e 3 176
e 3 194
e 4 17
e 4 18
e 4 19
e 4 21
e 4 22
e 4 23
e 4 24
e 4 26
e 4 27
e 4 29
e 4 30
e 4 31
e 4 33
e 4 35
e 4 36
e 4 37
e 4 40
e 4 46
e 4 47
e 4 48
e 4 49
e 4 50
e 4 51
e 4 52
e 4 55
e 4 57
e 4 60
e 4 61
e 4 62
e 4 65
e 4 68
e 4 73
e 4 75
e 4 80
e 4 84
e 4 85
e 4 90
e 4 94
e 4 102
e 4 110
e 4 118
e 4 119
e 4 128
e 4 131
e 4 133
e 4 152
e 4 155
e 4 157
e 4 159
e 4 162
e 4 172
e 4 185
e 4 188
e 4 192
e 4 204
e 5 17
e 5 20
e 5 43
e 5 55
e 5 85
e 5 94
e 5 185
e 6 17
e 6 18
e 6 19
e 6 21
e 6 22
e 6 25
e 6 27
e 6 29
e 6 30
e 6 34
e 6 35
e 6 36
e 6 41
e 6 43
e 6 44
e 6 52
e 6 57
e 6 62
e 6 63
e 6 70
e 6 84
e 6 88
e 6 107
e 6 120
e 6 135
e 6 136
e 6 162
e 6 164
e 6 166
e 6 173
e 7 17
e 7 18
e 7 19
e 7 20
e 7 22
e 7 25
e 7 26
e 7 28
e 7 30
e 7 33
e 7 35
e 7 36
e 7 41
e 7 43
e 7 49
e 7 52
e 7 53
e 7 54
e 7 62
e 7 66
e 7 71
e 7 77
e 7 85
e 7 103
e 7 104
e 7 113
e 7 117
e 7 124
e 7 144
e 7 151
e 7 154
e 7 162
e 7 194
e 8 17
e 8 18
e 8 19
e 8 20
e 8 22
e 8 23
e 8 24
e 8 25
e 8 26
e 8 28
e 8 31
e 8 33
e 8 37
e 8 38
e 8 40
e 8 44
e 8 47
e 8 51
e 8 56
e 8 61
e 8 70
e 8 73
e 8 76
e 8 81
e 8 85
e 8 87
e 8 93
e 8 94
e 8 97
e 8 118
e 8 121
e 8 141
e 8 148
e 8 171
e 8 173
e 8 174
e 8 190
e 9 17
e 9 18
e 9 19
e 9 20
e 9 23
e 9 24
e 9 26
e 9 27
e 9 29
e 9 30
e 9 31
e 9 32
e 9 34
e 9 39
e 9 42
e 9 43
e 9 48
e 9 53
e 9 57
e 9 64
e 9 69
e 9 72
e 9 73
e 9 87
e 9 89
e 9 104
e 9 106
e 9 108
e 9 120
e 9 132
e 9 143
e 9 179
e 9 190
e 9 198
e 9 199
e 10 17
e 10 18
e 10 19
e 10 20
e 10 21
e 10 22
e 10 23
e 10 24
e 10 28
e 10 31
e 10 32
e 10 34
e 10 40
e 10 42
e 10 51
e 10 52
e 10 59
e 10 62
e 10 67
e 10 68
e 10 70
e 10 72
e 10 74
e 10 78
e 10 87
e 10 97
e 10 101
e 10 103
e 10 106
e 10 113
e 10 116
e 10 117
e 10 122
e 10 127
e 10 131
e 10 139
e 10 143
e 10 149
e 10 164
e 10 174
e 10 178
e 10 184
e 10 198
e 11 17
e 11 18
e 11 19
e 11 20
e 11 21
e 11 24
e 11 28
e 11 29
e 11 33
e 11 36
e 11 40
e 11 41
e 11 42
e 11 48
e 11 58
e 11 65
e 11 67
e 11 82
e 11 87
e 11 91
e 11 103
e 11 106
e 11 113
e 11 122
e 11 136
e 11 139
e 11 143
e 11 154
e 11 163
e 11 167
e 11 170
e 11 189
e 11 201
e 12 17
e 12 18
e 12 19
e 12 21
e 12 22
e 12 23
e 12 24
e 12 25
e 12 27
e 12 31
e 12 32
e 12 34
e 12 39
e 12 43
e 12 44
e 12 50
e 12 51
e 12 71
e 12 76
e 12 85
e 12 99
e 12 110
e 12 114
e 12 122
e 12 130
e 12 146
e 12 177
e 12 197
e 12 204
e 13 17
e 13 18
e 13 19
e 13 20
e 13 21
e 13 22
e 13 23
e 13 25
e 13 26
e 13 27
e 13 28
e 13 29
e 13 35
e 13 36
e 13 37
e 13 41
e 13 50
e 13 54
e 13 59
e 13 60
e 13 61
e 13 64
e 13 65
e 13 70
e 13 71
e 13 74
e 13 76
e 13 78
e 13 79
e 13 83
e 13 85
e 13 86
e 13 87
e 13 88
e 13 96
e 13 98
e 13 99
e 13 100
e 13 112
e 13 117
e 13 118
e 13 130
e 13 134
e 13 137
e 13 148
e 13 150
e 13 153
e 13 155
e 13 175
e 13 181
e 13 193
e 13 194
e 14 17
e 14 18
e 14 19
e 14 20
e 14 21
e 14 22
e 14 23
e 14 25
e 14 34
e 14 35
e 14 37
e 14 47
e 14 51
e 14 58
e 14 67
e 14 68
e 14 69
e 14 88
e 14 116
e 14 125
e 14 130
e 14 136
e 14 151
e 14 155
e 14 166
e 15 17
e 15 18
e 15 19
e 15 20
e 15 21
e 15 33
e 15 38
e 15 40
e 15 45
e 15 48
e 15 50
e 15 67
e 15 82
e 15 116
e 15 145
e 15 146
e 15 184
e 15 198
e 16 17
e 16 18
e 16 19
e 16 20
e 16 21
e 16 23
e 16 25
e 16 26
e 16 27
e 16 28
e 16 31
e 16 35
e 16 37
e 16 38
e 16 40
e 16 42
e 16 44
e 16 50
e 16 57
e 16 58
e 16 65
e 16 73
e 16 86
e 16 88
e 16 91
e 16 93
e 16 95
e 16 99
e 16 109
e 16 120
e 16 127
e 16 130
e 16 141
e 16 142
e 16 146
e 16 149
e 16 158
e 16 169
e 16 173
e 16 181
e 16 187
e 17 18
e 17 19
e 17 20
e 17 21
e 17 22
e 17 23
e 17 24
e 17 25
e 17 26
e 17 27
e 17 28
e 17 30
e 17 31
e 17 32
e 17 33
e 17 34
e 17 35
e 17 36
e 17 37
e 17 38
e 17 39
e 17 41
e 17 42
e 17 46
e 17 47
e 17 48
e 17 49
e 17 51
e 17 52
e 17 53
e 17 54
e 17 56
e 17 57
e 17 58
e 17 59
e 17 60
e 17 62
e 17 66
e 17 67
e 17 70
e 17 71
e 17 73
e 17 79
e 17 88
e 17 92
e 17 96
e 17 101
e 17 102
e 17 105
e 17 111
e 17 113
e 17 115
e 17 116
e 17 117
e 17 119
e 17 121
e 17 127
e 17 131
e 17 135
e 17 138
e 17 142
e 17 144
e 17 146
e 17 153
e 17 159
e 17 169
e 17 176
e 17 177
e 17 183
e 17 191
e 17 192
e 17 196
e 17 197
e 17 200
e 17 203
e 18 19
e 18 20
e 18 21
e 18 22
e 18 23
e 18 24
e 18 25
e 18 26
e 18 27
e 18 28
e 18 29
e 18 30
e 18 31
e 18 32
e 18 33
e 18 34
e 18 36
e 18 38
e 18 40
e 18 42
e 18 43
e 18 45
e 18 46
e 18 51
e 18 52
e 18 54
e 18 55
e 18 56
e 18 57
e 18 58
e 18 59
e 18 61
e 18 64
e 18 65
e 18 66
e 18 67
e 18 69
e 18 73
e 18 74
e 18 77
e 18 79
e 18 84
e 18 86
e 18 87
e 18 90
e 18 91
e 18 92
e 18 94
e 18 96
e 18 99
e 18 100
e 18 109
e 18 110
e 18 111
e 18 113
e 18 115
e 18 117
e 18 124
e 18 127
e 18 137
e 18 139
e 18 140
e 18 146
e 18 149
e 18 153
e 18 161
e 18 162
e 18 168
e 18 170
e 18 174
e 18 175
e 18 176
e 18 184
e 18 186
e 18 194
e 18 198
e 18 205
e 19 20
e 19 21
e 19 22
e 19 23
e 19 24
e 19 25
e 19 26
e 19 27
e 19 28
e 19 29
e 19 30
e 19 31
e 19 32
e 19 33
e 19 36
e 19 38
e 19 39
e 19 44
e 19 46
e 19 48
e 19 51
e 19 53
e 19 57
e 19 59
e 19 62
e 19 63
e 19 65
e 19 66
e 19 67
e 19 69
e 19 70
e 19 72
e 19 74
e 19 76
e 19 77
e 19 81
e 19 82
e 19 83
e 19 85
e 19 87
e 19 90
e 19 92
e 19 94
e 19 95
e 19 96
e 19 99
e 19 100
e 19 101
e 19 103
e 19 105
e 19 111
e 19 112
e 19 113
e 19 114
e 19 115
e 19 120
e 19 123
e 19 125
e 19 129
e 19 134
e 19 135
e 19 139
e 19 145
e 19 148
e 19 152
e 19 154
e 19 156
e 19 158
e 19 163
e 19 167
e 19 180
e 19 183
e 19 199
e 19 203
e 19 205
e 20 21
e 20 22
e 20 23
e 20 24
e 20 25
e 20 26
e 20 27
e 20 28
e 20 29
e 20 30
e 20 31
e 20 33
e 20 39
e 20 41
e 20 42
e 20 43
e 20 44
e 20 45
e 20 46
e 20 47
e 20 48
e 20 49
e 20 52
e 20 58
e 20 60
e 20 61
e 20 62
e 20 65
e 20 66
e 20 69
e 20 71
e 20 72
e 20 73
e 20 76
e 20 77
e 20 80
e 20 82
e 20 83
e 20 88
e 20 89
e 20 94
e 20 95
e 20 97
e 20 102
e 20 105
e 20 107
e 20 108
e 20 110
e 20 112
e 20 113
e 20 116
e 20 120
e 20 121
e 20 123
e 20 124
e 20 127
e 20 136
e 20 140
e 20 144
e 20 145
e 20 146
e 20 147
e 20 150
e 20 151
e 20 152
e 20 153
e 20 154
e 20 157
e 20 163
e 20 165
e 20 166
e 20 171
e 20 175
e 20 176
e 20 178
e 20 182
e 20 185
e 20 186
e 20 187
e 20 189
e 20 191
e 20 195
e 20 200
e 20 201
e 21 22
e 21 23
e 21 24
e 21 25
e 21 26
e 21 27
e 21 28
e 21 29
e 21 30
e 21 31
e 21 32
e 21 34
e 21 35
e 21 37
e 21 38
e 21 39
e 21 40
e 21 41
e 21 42
e 21 45
e 21 47
e 21 50
e 21 51
e 21 52
e 21 53
e 21 54
e 21 55
e 21 59
e 21 60
e 21 61
e 21 62
e 21 63
e 21 64
e 21 65
e 21 68
e 21 73
e 21 75
e 21 76
e 21 79
e 21 83
e 21 89
e 21 91
e 21 92
e 21 96
e 21 101
e 21 104
e 21 111
e 21 119
e 21 121
e 21 122
e 21 126
e 21 133
e 21 135
e 21 138
e 21 140
e 21 150
e 21 151
e 21 156
e 21 158
e 21 164
e 21 165
e 21 167
e 21 173
e 21 179
e 21 185
e 21 188
e 21 191
e 21 193
e 21 194
e 22 23
e 22 24
e 22 25
e 22 26
e 22 28
e 22 29
e 22 30
e 22 31
e 22 33
e 22 34
e 22 35
e 22 36
e 22 37
e 22 39
e 22 41
e 22 42
e 22 45
e 22 46
e 22 49
e 22 50
e 22 52
e 22 53
e 22 54
e 22 57
e 22 58
e 22 60
e 22 61
e 22 72
e 22 73
e 22 74
e 22 81
e 22 84
e 22 87
e 22 88
e 22 89
e 22 91
e 22 106
e 22 111
e 22 112
e 22 114
e 22 115
e 22 117
e 22 120
e 22 127
e 22 131
e 22 135
e 22 142
e 22 154
e 22 155
e 22 158
e 22 174
e 22 179
e 22 180
e 22 181
e 22 186
e 22 188
e 22 191
e 22 192
e 22 195
e 22 200
e 23 24
e 23 25
e 23 26
e 23 27
e 23 28
e 23 29
e 23 31
e 23 32
e 23 37
e 23 39
e 23 40
e 23 41
e 23 42
e 23 43
e 23 47
e 23 48
e 23 49
e 23 51
e 23 52
e 23 55
e 23 56
e 23 57
e 23 60
e 23 62
e 23 65
e 23 74
e 23 76
e 23 77
e 23 79
e 23 81
e 23 84
e 23 95
e 23 98
e 23 99
e 23 100
e 23 101
e 23 102
e 23 103
e 23 106
e 23 107
e 23 121
e 23 124
e 23 128
e 23 131
e 23 132
e 23 140
e 23 141
e 23 145
e 23 154
e 23 157
e 23 165
e 23 168
e 23 185
e 23 191
e 23 198
e 24 25
e 24 26
e 24 27
e 24 29
e 24 30
e 24 32
e 24 33
e 24 35
e 24 36
e 24 38
e 24 39
e 24 42
e 24 45
e 24 47
e 24 48
e 24 52
e 24 53
e 24 56
e 24 58
e 24 61
e 24 64
e 24 66
e 24 67
e 24 69
e 24 72
e 24 78
e 24 80
e 24 82
e 24 89
e 24 95
e 24 102
e 24 103
e 24 104
e 24 106
e 24 116
e 24 117
e 24 118
e 24 123
e 24 132
e 24 133
e 24 139
e 24 146
e 24 151
e 24 163
e 24 172
e 24 181
e 24 197
e 24 205
e 25 26
e 25 28
e 25 32
e 25 34
e 25 35
e 25 36
e 25 38
e 25 40
e 25 43
e 25 44
e 25 46
e 25 47
e 25 49
e 25 50
e 25 54
e 25 55
e 25 56
e 25 60
e 25 61
e 25 64
e 25 65
e 25 67
e 25 69
e 25 70
e 25 71
e 25 75
e 25 78
e 25 79
e 25 81
e 25 82
e 25 84
e 25 86
e 25 88
e 25 90
e 25 91
e 25 92
e 25 95
e 25 98
e 25 102
e 25 108
e 25 109
e 25 112
e 25 116
e 25 124
e 25 125
e 25 131
e 25 133
e 25 134
e 25 143
e 25 145
e 25 146
e 25 149
e 25 156
e 25 159
e 25 162
e 25 163
e 25 168
e 25 174
e 25 175
e 25 178
e 25 179
e 25 183
e 25 195
e 25 196
e 26 28
e 26 29
e 26 30
e 26 31
e 26 32
e 26 34
e 26 37
e 26 38
e 26 40
e 26 41
e 26 44
e 26 53
e 26 56
e 26 70
e 26 71
e 26 72
e 26 82
e 26 88
e 26 98
e 26 102
e 26 104
e 26 105
e 26 106
e 26 109
e 26 114
e 26 116
e 26 122
e 26 134
e 26 138
e 26 145
e 26 146
e 26 157
e 26 162
e 26 163
e 26 173
e 26 183
e 26 197
e 26 200
e 27 28
e 27 29
e 27 30
e 27 33
e 27 34
e 27 35
e 27 36
e 27 37
e 27 38
e 27 40
e 27 41
e 27 42
e 27 45
e 27 47
e 27 49
e 27 50
e 27 52
e 27 54
e 27 55
e 27 56
e 27 58
e 27 59
e 27 60
e 27 62
e 27 63
e 27 65
e 27 68
e 27 69
e 27 70
e 27 71
e 27 75
e 27 83
e 27 89
e 27 90
e 27 92
e 27 95
e 27 96
e 27 99
e 27 100
e 27 101
e 27 103
e 27 104
e 27 114
e 27 115
e 27 116
e 27 119
e 27 120
e 27 125
e 27 126
e 27 129
e 27 132
e 27 136
e 27 139
e 27 140
e 27 141
e 27 149
e 27 155
e 27 165
e 27 168
e 27 169
e 27 171
e 27 172
e 27 175
e 27 181
e 27 187
e 27 189
e 27 191
e 27 192
e 27 193
e 27 200
e 27 201
e 27 202
e 27 205
e 28 29
e 28 35
e 28 36
e 28 37
e 28 38
e 28 41
e 28 43
e 28 44
e 28 46
e 28 58
e 28 63
e 28 66
e 28 68
e 28 73
e 28 74
e 28 77
e 28 78
e 28 79
e 28 81
e 28 86
e 28 90
e 28 92
e 28 94
e 28 98
e 28 105
e 28 107
e 28 119
e 28 127
e 28 148
e 28 150
e 28 151
e 28 159
e 28 160
e 28 162
e 28 165
e 28 166
e 28 177
e 28 178
e 28 179
e 28 180
e 28 184
e 29 30
e 29 31
e 29 32
e 29 34
e 29 37
e 29 38
e 29 39
e 29 42
e 29 43
e 29 44
e 29 45
e 29 47
e 29 48
e 29 52
e 29 55
e 29 58
e 29 60
e 29 64
e 29 66
e 29 68
e 29 70
e 29 71
e 29 75
e 29 81
e 29 83
e 29 84
e 29 98
e 29 100
e 29 104
e 29 105
e 29 110
e 29 119
e 29 127
e 29 132
e 29 133
e 29 138
e 29 144
e 29 147
e 29 150
e 29 151
e 29 156
e 29 162
e 29 166
e 29 168
e 29 169
e 29 173
e 29 176
e 29 182
e 29 195
e 29 196
e 30 31
e 30 32
e 30 33
e 30 36
e 30 37
e 30 40
e 30 45
e 30 54
e 30 58
e 30 59
e 30 62
e 30 65
e 30 67
e 30 70
e 30 72
e 30 79
e 30 80
e 30 86
e 30 93
e 30 95
e 30 102
e 30 109
e 30 110
e 30 112
e 30 113
e 30 114
e 30 115
e 30 116
e 30 117
e 30 118
e 30 121
e 30 122
e 30 128
e 30 130
e 30 136
e 30 140
e 30 145
e 30 148
e 30 155
e 30 156
e 30 167
e 30 172
e 30 190
e 30 191
e 30 198
e 30 202
e 30 203
e 31 32
e 31 33
e 31 34
e 31 36
e 31 39
e 31 41
e 31 43
e 31 45
e 31 53
e 31 60
e 31 61
e 31 63
e 31 66
e 31 74
e 31 78
e 31 89
e 31 99
e 31 108
e 31 112
e 31 135
e 31 139
e 31 146
e 31 151
e 31 152
e 31 155
e 31 156
e 31 157
e 31 164
e 31 166
e 31 170
e 31 175
e 31 184
e 31 193
e 31 200
e 32 34
e 32 35
e 32 36
e 32 37
e 32 39
e 32 40
e 32 43
e 32 44
e 32 45
e 32 49
e 32 52
e 32 54
e 32 57
e 32 61
e 32 66
e 32 72
e 32 76
e 32 78
e 32 82
e 32 84
e 32 90
e 32 93
e 32 94
e 32 95
e 32 108
e 32 109
e 32 110
e 32 114
e 32 116
e 32 117
e 32 118
e 32 119
e 32 123
e 32 128
e 32 142
e 32 143
e 32 146
e 32 153
e 32 161
e 32 169
e 32 173
e 32 179
e 32 183
e 32 187
e 32 189
e 32 192
e 32 198
e 32 199
e 32 200
e 32 203
e 33 35
e 33 37
e 33 39
e 33 40
e 33 44
e 33 47
e 33 49
e 33 50
e 33 51
e 33 54
e 33 55
e 33 57
e 33 63
e 33 69
e 33 71
e 33 73
e 33 78
e 33 86
e 33 89
e 33 94
e 33 102
e 33 120
e 33 123
e 33 129
e 33 131
e 33 137
e 33 140
e 33 141
e 33 152
e 33 173
e 33 198
e 34 47
e 34 50
e 34 51
e 34 52
e 34 54
e 34 59
e 34 61
e 34 63
e 34 64
e 34 68
e 34 74
e 34 79
e 34 91
e 34 100
e 34 103
e 34 111
e 34 115
e 34 123
e 34 124
e 34 129
e 34 130
e 34 134
e 34 156
e 34 158
e 34 160
e 34 179
e 34 192
e 34 196
e 34 197
e 35 38
e 35 39
e 35 40
e 35 48
e 35 51
e 35 52
e 35 57
e 35 58
e 35 59
e 35 60
e 35 67
e 35 73
e 35 74
e 35 75
e 35 83
e 35 91
e 35 93
e 35 97
e 35 98
e 35 106
e 35 118
e 35 120
e 35 121
e 35 123
e 35 128
e 35 130
e 35 132
e 35 137
e 35 151
e 35 157
e 35 166
e 35 168
e 35 190
e 35 198
e 35 199
e 35 202
e 35 203
e 36 38
e 36 39
e 36 41
e 36 42
e 36 44
e 36 45
e 36 47
e 36 48
e 36 55
e 36 57
e 36 76
e 36 78
e 36 84
e 36 85
e 36 86
e 36 97
e 36 102
e 36 103
e 36 107
e 36 110
e 36 116
e 36 117
e 36 123
e 36 130
e 36 143
e 36 147
e 36 149
e 36 167
e 36 169
e 36 170
e 36 171
e 36 174
e 36 179
e 36 181
e 36 183
e 36 192
e 37 42
e 37 45
e 37 53
e 37 56
e 37 60
e 37 78
e 37 92
e 37 93
e 37 97
e 37 98
e 37 109
e 37 114
e 37 126
e 37 132
e 37 140
e 37 155
e 37 176
e 37 182
e 37 203
e 38 43
e 38 48
e 38 55
e 38 58
e 38 61
e 38 63
e 38 64
e 38 67
e 38 75
e 38 76
e 38 79
e 38 85
e 38 87
e 38 93
e 38 95
e 38 96
e 38 97
e 38 108
e 38 119
e 38 122
e 38 123
e 38 129
e 38 145
e 38 148
e 38 155
e 38 159
e 38 160
e 38 163
e 38 173
e 38 180
e 38 189
e 38 205
e 39 43
e 39 44
e 39 45
e 39 46
e 39 50
e 39 51
e 39 55
e 39 56
e 39 69
e 39 70
e 39 71
e 39 73
e 39 75
e 39 76
e 39 79
e 39 83
e 39 84
e 39 88
e 39 90
e 39 97
e 39 111
e 39 115
e 39 122
e 39 138
e 39 139
e 39 142
e 39 144
e 39 151
e 39 152
e 39 183
e 39 184
e 39 186
e 39 190
e 39 195
e 39 196
e 39 203
e 40 41
e 40 44
e 40 46
e 40 48
e 40 49
e 40 51
e 40 55
e 40 59
e 40 66
e 40 69
e 40 74
e 40 76
e 40 77
e 40 80
e 40 86
e 40 88
e 40 89
e 40 91
e 40 92
e 40 101
e 40 106
e 40 108
e 40 111
e 40 129
e 40 130
e 40 135
e 40 137
e 40 139
e 40 150
e 40 155
e 40 167
e 40 170
e 40 173
e 40 180
e 40 181
e 40 188
e 40 196
e 40 201
e 40 205
e 41 43
e 41 46
e 41 47
e 41 53
e 41 54
e 41 60
e 41 68
e 41 71
e 41 72
e 41 76
e 41 77
e 41 86
e 41 87
e 41 90
e 41 91
e 41 96
e 41 99
e 41 102
e 41 106
e 41 107
e 41 114
e 41 117
e 41 123
e 41 133
e 41 134
e 41 144
e 41 149
e 41 155
e 41 158
e 41 161
e 41 176
e 41 179
e 41 183
e 41 186
e 41 192
e 41 194
e 41 200
e 42 48
e 42 49
e 42 53
e 42 62
e 42 65
e 42 75
e 42 85
e 42 90
e 42 109
e 42 111
e 42 118
e 42 119
e 42 124
e 42 134
e 42 137
e 42 143
e 42 159
e 42 162
e 42 164
e 42 167
e 42 175
e 42 189
e 43 46
e 43 49
e 43 50
e 43 69
e 43 77
e 43 78
e 43 89
e 43 107
e 43 143
e 43 154
e 43 155
e 43 185
e 43 202
e 44 45
e 44 46
e 44 49
e 44 53
e 44 55
e 44 66
e 44 67
e 44 69
e 44 70
e 44 72
e 44 80
e 44 82
e 44 94
e 44 95
e 44 96
e 44 102
e 44 103
e 44 107
e 44 109
e 44 110
e 44 115
e 44 119
e 44 139
e 44 169
e 44 171
e 44 175
e 44 186
e 45 46
e 45 48
e 45 49
e 45 54
e 45 79
e 45 88
e 45 109
e 45 125
e 45 128
e 45 142
e 45 156
e 45 161
e 45 168
e 45 169
e 45 173
e 45 200
e 46 50
e 46 59
e 46 63
e 46 64
e 46 65
e 46 70
e 46 72
e 46 75
e 46 80
e 46 84
e 46 87
e 46 88
e 46 93
e 46 95
e 46 104
e 46 117
e 46 121
e 46 124
e 46 125
e 46 129
e 46 137
e 46 142
e 46 157
e 46 162
e 46 172
e 46 182
e 46 196
e 46 201
e 47 50
e 47 53
e 47 55
e 47 56
e 47 61
e 47 63
e 47 68
e 47 72
e 47 96
e 47 118
e 47 126
e 47 129
e 47 135
e 47 141
e 47 156
e 47 159
e 47 175
e 47 181
e 47 186
e 47 190
e 47 197
e 48 49
e 48 53
e 48 68
e 48 77
e 48 83
e 48 85
e 48 95
e 48 108
e 48 119
e 48 134
e 48 139
e 48 140
e 48 144
e 48 145
e 48 147
e 48 149
e 48 161
e 48 188
e 48 200
e 49 54
e 49 55
e 49 57
e 49 62
e 49 63
e 49 66
e 49 74
e 49 80
e 49 82
e 49 92
e 49 96
e 49 100
e 49 101
e 49 107
e 49 112
e 49 113
e 49 115
e 49 117
e 49 118
e 49 133
e 49 137
e 49 141
e 49 167
e 49 175
e 49 180
e 49 186
e 49 191
e 49 195
e 49 205
e 50 51
e 50 53
e 50 62
e 50 67
e 50 68
e 50 79
e 50 80
e 50 81
e 50 82
e 50 83
e 50 88
e 50 93
e 50 99
e 50 100
e 50 103
e 50 109
e 50 111
e 50 117
e 50 123
e 50 125
e 50 138
e 50 141
e 50 151
e 50 153
e 50 174
e 50 176
e 50 182
e 51 59
e 51 65
e 51 69
e 51 71
e 51 73
e 51 76
e 51 77
e 51 78
e 51 86
e 51 90
e 51 93
e 51 100
e 51 101
e 51 103
e 51 104
e 51 105
e 51 139
e 51 165
e 51 183
e 51 184
e 51 204
e 52 56
e 52 63
e 52 64
e 52 68
e 52 70
e 52 77
e 52 83
e 52 85
e 52 99
e 52 104
e 52 106
e 52 108
e 52 112
e 52 126
e 52 130
e 52 139
e 52 142
e 52 158
e 52 162
e 52 169
e 52 187
e 52 197
e 52 204
e 53 66
e 53 68
e 53 75
e 53 77
e 53 80
e 53 89
e 53 104
e 53 110
e 53 130
e 53 136
e 53 138
e 53 139
e 53 159
e 53 160
e 53 162
e 53 168
e 53 185
e 53 192
e 53 196
e 54 58
e 54 61
e 54 66
e 54 82
e 54 87
e 54 94
e 54 129
e 54 131
e 54 138
e 54 147
e 54 157
e 54 161
e 54 165
e 54 188
e 54 193
e 54 199
e 54 200
e 54 205
e 55 56
e 55 57
e 55 64
e 55 68
e 55 77
e 55 91
e 55 92
e 55 99
e 55 101
e 55 102
e 55 123
e 55 133
e 55 138
e 55 143
e 55 148
e 55 153
e 55 166
e 55 173
e 55 180
e 55 182
e 55 196
e 55 198
e 55 201
e 56 64
e 56 65
e 56 70
e 56 71
e 56 75
e 56 83
e 56 89
e 56 93
e 56 94
e 56 109
e 56 110
e 56 122
e 56 130
e 56 157
e 56 159
e 56 164
e 56 167
e 56 186
e 56 199
e 57 58
e 57 59
e 57 62
e 57 63
e 57 64
e 57 71
e 57 73
e 57 78
e 57 81
e 57 86
e 57 93
e 57 100
e 57 111
e 57 113
e 57 128
e 57 133
e 57 137
e 57 138
e 57 141
e 57 149
e 57 155
e 57 168
e 57 170
e 57 171
e 57 178
e 57 190
e 57 194
e 57 195
e 58 64
e 58 72
e 58 80
e 58 83
e 58 102
e 58 104
e 58 119
e 58 123
e 58 125
e 58 126
e 58 129
e 58 132
e 58 145
e 58 147
e 58 151
e 58 154
e 58 155
e 58 163
e 58 178
e 58 183
e 58 190
e 58 198
e 59 60
e 59 63
e 59 72
e 59 80
e 59 83
e 59 84
e 59 87
e 59 97
e 59 99
e 59 130
e 59 167
e 59 184
e 59 191
e 59 204
e 60 61
e 60 62
e 60 63
e 60 77
e 60 79
e 60 89
e 60 93
e 60 98
e 60 128
e 60 131
e 60 134
e 60 140
e 60 144
e 60 148
e 60 159
e 60 167
e 60 173
e 60 191
e 61 67
e 61 68
e 61 74
e 61 75
e 61 82
e 61 84
e 61 88
e 61 96
e 61 108
e 61 120
e 61 124
e 61 131
e 61 132
e 61 147
e 61 153
e 61 157
e 61 164
e 61 168
e 61 171
e 61 174
e 61 189
e 62 81
e 62 124
e 62 127
e 62 147
e 62 156
e 62 168
e 63 78
e 63 85
e 63 96
e 63 103
e 63 108
e 63 110
e 63 114
e 63 124
e 63 125
e 63 130
e 63 131
e 63 133
e 63 144
e 63 148
e 63 157
e 63 158
e 63 178
e 63 181
e 63 188
e 63 189
e 63 201
e 63 202
e 64 66
e 64 69
e 64 97
e 64 118
e 64 122
e 64 126
e 64 127
e 64 166
e 64 174
e 64 180
e 64 199
e 65 69
e 65 72
e 65 87
e 65 89
e 65 91
e 65 94
e 65 97
e 65 100
e 65 105
e 65 108
e 65 128
e 65 135
e 65 136
e 65 154
e 65 155
e 65 156
e 65 173
e 65 190
e 65 199
e 66 80
e 66 93
e 66 98
e 66 101
e 66 111
e 66 112
e 66 120
e 66 150
e 66 172
e 66 177
e 66 182
e 66 184
e 66 196
e 66 202
e 67 80
e 67 96
e 67 120
e 67 138
e 67 165
e 67 172
e 67 183
e 67 204
e 68 78
e 68 89
e 68 91
e 68 102
e 68 105
e 68 113
e 68 124
e 68 133
e 68 135
e 68 152
e 68 153
e 68 166
e 69 82
e 69 83
e 69 87
e 69 92
e 69 101
e 69 107
e 69 109
e 69 115
e 69 122
e 69 125
e 69 156
e 69 157
e 69 177
e 69 178
e 69 181
e 69 198
e 69 199
e 69 203
e 70 74
e 70 76
e 70 81
e 70 82
e 70 83
e 70 97
e 70 99
e 70 100
e 70 106
e 70 110
e 70 111
e 70 112
e 70 113
e 70 129
e 70 137
e 70 144
e 70 145
e 70 154
e 70 157
e 70 169
e 70 177
e 70 193
e 70 203
e 70 204
e 71 81
e 71 92
e 71 109
e 71 112
e 71 114
e 71 125
e 71 129
e 71 141
e 71 205
e 72 75
e 72 86
e 72 90
e 72 92
e 72 114
e 72 126
e 72 135
e 72 144
e 72 161
e 72 174
e 72 184
e 72 197
e 72 199
e 73 108
e 73 113
e 73 122
e 73 123
e 73 126
e 73 128
e 73 129
e 73 132
e 73 140
e 73 147
e 73 156
e 73 171
e 73 172
e 73 178
e 73 181
e 73 190
e 73 204
e 74 76
e 74 87
e 74 88
e 74 91
e 74 121
e 74 126
e 74 128
e 74 135
e 74 147
e 74 159
e 74 177
e 74 203
e 75 77
e 75 86
e 75 89
e 75 96
e 75 97
e 75 106
e 75 112
e 75 141
e 75 142
e 75 162
e 75 170
e 75 171
e 75 202
e 75 204
e 76 80
e 76 101
e 76 120
e 76 125
e 76 134
e 76 143
e 76 192
e 77 78
e 77 79
e 77 80
e 77 81
e 77 82
e 77 84
e 77 92
e 77 98
e 77 118
e 77 126
e 77 131
e 77 133
e 77 136
e 77 142
e 77 143
e 77 144
e 77 145
e 77 152
e 77 153
e 77 159
e 77 160
e 77 168
e 77 180
e 77 182
e 77 187
e 77 193
e 78 79
e 78 128
e 78 132
e 78 135
e 78 170
e 78 195
e 78 199
e 78 201
e 78 204
e 79 98
e 79 114
e 79 116
e 79 121
e 79 136
e 79 158
e 79 182
e 79 194
e 79 197
e 80 81
e 80 84
e 80 98
e 80 99
e 80 107
e 80 109
e 80 111
e 80 114
e 80 119
e 80 135
e 80 138
e 80 148
e 80 158
e 80 161
e 80 164
e 80 172
e 80 175
e 80 177
e 80 186
e 81 92
e 81 98
e 81 104
e 81 129
e 81 145
e 81 160
e 82 90
e 82 94
e 82 96
e 82 154
e 82 161
e 82 167
e 82 168
e 82 188
e 83 90
e 83 100
e 83 105
e 83 107
e 83 110
e 83 113
e 83 115
e 83 142
e 83 147
e 83 153
e 83 159
e 83 170
e 83 176
e 83 200
e 83 202
e 83 204
e 84 85
e 84 91
e 84 119
e 84 126
e 84 136
e 84 139
e 84 163
e 84 174
e 84 178
e 84 186
e 84 193
e 85 94
e 85 97
e 85 99
e 85 105
e 85 113
e 85 127
e 85 146
e 85 151
e 85 157
e 85 158
e 85 165
e 85 192
e 85 195
e 85 204
e 86 91
e 86 101
e 86 104
e 86 105
e 86 106
e 86 107
e 86 126
e 86 128
e 86 134
e 86 137
e 86 140
e 86 147
e 86 162
e 86 171
e 86 172
e 86 189
e 87 90
e 87 93
e 87 114
e 87 122
e 87 127
e 87 133
e 87 165
e 87 171
e 87 185
e 88 90
e 88 95
e 88 115
e 88 152
e 88 153
e 88 170
e 88 187
e 88 199
e 89 95
e 89 162
e 89 187
e 90 94
e 90 114
e 90 153
e 90 193
e 91 97
e 91 98
e 91 109
e 91 112
e 91 129
e 91 131
e 91 160
e 91 190
e 92 102
e 92 105
e 92 108
e 92 157
e 92 161
e 92 170
e 92 178
e 92 183
e 92 192
e 92 202
e 92 205
e 93 100
e 93 108
e 93 118
e 93 122
e 93 134
e 93 141
e 93 143
e 93 148
e 93 151
e 93 163
e 94 101
e 94 103
e 94 104
e 94 132
e 94 146
e 94 149
e 94 164
e 94 194
e 94 202
e 95 110
e 95 116
e 95 124
e 95 130
e 95 143
e 95 148
e 95 149
e 95 150
e 95 182
e 96 98
e 96 122
e 96 123
e 96 152
e 96 158
e 96 159
e 97 115
e 97 128
e 97 137
e 97 149
e 97 164
e 97 185
e 97 188
e 97 193
e 97 199
e 97 203
e 98 100
e 98 144
e 98 168
e 98 178
e 98 184
e 98 190
e 98 196
e 98 198
e 99 101
e 99 104
e 99 105
e 99 106
e 99 120
e 99 134
e 99 135
e 99 140
e 99 152
e 99 188
e 99 192
e 99 194
e 100 120
e 100 122
e 100 136
e 100 138
e 100 144
e 100 150
e 100 158
e 100 160
e 100 164
e 100 196
e 101 108
e 101 119
e 101 121
e 101 131
e 101 132
e 101 134
e 101 154
e 101 163
e 101 197
e 102 105
e 102 124
e 102 138
e 102 142
e 102 158
e 102 175
e 102 195
e 102 201
e 103 107
e 103 110
e 103 133
e 103 148
e 103 165
e 103 170
e 103 172
e 103 177
e 103 183
e 104 107
e 104 111
e 104 124
e 104 126
e 104 131
e 104 142
e 104 160
e 104 188
e 105 120
e 105 144
e 106 125
e 106 160
e 106 161
e 106 189
e 106 203
e 107 112
e 107 121
e 107 128
e 107 159
e 107 164
e 107 167
e 107 178
e 107 185
e 108 112
e 108 116
e 108 131
e 108 134
e 108 153
e 108 163
e 108 201
e 109 118
e 109 127
e 109 132
e 109 133
e 109 136
e 109 142
e 109 152
e 109 164
e 109 192
e 109 195
e 109 196
e 109 200
e 110 113
e 110 151
e 110 171
e 110 188
e 111 140
e 111 141
e 111 143
e 111 169
e 111 176
e 111 195
e 111 204
e 112 119
e 112 123
e 112 144
e 112 146
e 112 147
e 112 154
e 112 160
e 112 161
e 112 176
e 112 180
e 112 186
e 112 188
e 113 135
e 113 147
e 113 150
e 113 186
e 114 115
e 114 118
e 114 149
e 114 170
e 114 185
e 115 118
e 115 150
e 115 164
e 115 187
e 115 189
e 115 200
e 116 117
e 116 121
e 116 125
e 116 141
e 116 149
e 116 181
e 117 124
e 117 126
e 117 127
e 117 128
e 117 130
e 117 150
e 117 151
e 117 166
e 117 180
e 117 184
e 117 187
e 117 189
e 117 203
e 118 121
e 118 125
e 118 127
e 118 137
e 118 140
e 118 150
e 118 180
e 118 182
e 118 186
e 119 129
e 119 194
e 119 197
e 119 200
e 119 204
e 120 140
e 120 157
e 120 169
e 120 174
e 120 176
e 120 178
e 120 188
e 121 171
e 121 179
e 121 182
e 122 141
e 122 173
e 123 125
e 123 166
e 123 197
e 123 199
e 123 201
e 124 126
e 124 145
e 124 147
e 124 149
e 124 158
e 124 170
e 124 174
e 124 177
e 124 205
e 125 127
e 125 194
e 125 198
e 125 203
e 126 141
e 126 153
e 126 160
e 127 159
e 127 161
e 127 163
e 127 170
e 127 185
e 128 134
e 128 148
e 128 177
e 128 193
e 128 194
e 129 139
e 129 165
e 129 182
e 130 133
e 130 136
e 130 145
e 130 173
e 131 143
e 131 145
e 131 150
e 131 152
e 131 160
e 131 164
e 131 165
e 131 171
e 131 176
e 131 183
e 132 190
e 132 199
e 133 167
e 134 137
e 134 162
e 134 177
e 135 154
e 135 165
e 136 164
e 136 166
e 136 172
e 136 174
e 136 175
e 136 180
e 136 190
e 137 142
e 137 143
e 137 184
e 138 156
e 138 160
e 139 146
e 139 150
e 139 152
e 139 184
e 139 191
e 139 205
e 140 171
e 140 172
e 140 187
e 140 189
e 140 199
e 141 148
e 141 156
e 141 161
e 141 176
e 141 182
e 141 190
e 142 191
e 143 174
e 143 182
e 143 187
e 143 191
e 144 167
e 144 172
e 144 201
e 145 161
e 145 177
e 145 178
e 145 185
e 146 181
e 146 183
e 146 202
e 147 155
e 147 169
e 147 174
e 147 179
e 147 180
e 147 202
e 148 152
e 148 166
e 148 167
e 149 150
e 149 168
e 149 193
e 150 154
e 150 158
e 150 172
e 150 185
e 150 195
e 150 200
e 151 152
e 151 154
e 151 185
e 152 160
e 152 165
e 152 177
e 152 204
e 152 205
e 153 160
e 153 166
e 153 171
e 153 175
e 153 187
e 154 176
e 154 187
e 155 182
e 155 189
e 156 191
e 156 194
e 156 201
e 157 163
e 157 168
e 157 169
e 157 196
e 157 202
e 158 163
e 158 169
e 158 197
e 158 198
e 158 202
e 160 169
e 160 179
e 161 172
e 161 183
e 162 184
e 163 189
e 164 165
e 164 194
e 165 181
e 166 170
e 166 175
e 166 180
e 166 187
e 166 201
e 167 177
e 167 197
e 168 178
e 168 192
e 169 176
e 169 195
e 170 188
e 170 189
e 174 175
e 174 177
e 174 179
e 174 185
e 174 203
e 175 193
e 175 205
e 176 193
e 177 184
e 177 186
e 177 205
e 178 179
e 178 187
e 179 181
e 179 188
e 181 194
e 182 203
e 183 191
e 184 193
e 185 186
e 185 196
e 185 205
e 186 201
e 189 191
e 191 195
e 192 193
e 192 197
e 192 202
e 193 195
e 193 196
e 194 202
e 195 198
e 199 201
